* ENCODING=ISO-8859-1
NAME          CPLEX
ROWS
 N  obj1    
 G  c1      
 G  c2      
 G  c3      
 G  c4      
 G  c5      
 G  c6      
 G  c7      
 G  c8      
 G  c9      
 G  c10     
 G  c11     
 G  c12     
 G  c13     
 G  c14     
 G  c15     
 G  c16     
 G  c17     
 G  c18     
 G  c19     
 G  c20     
 G  c21     
 G  c22     
 G  c23     
 G  c24     
 G  c25     
 G  c26     
 G  c27     
 G  c28     
 G  c29     
 G  c30     
 G  c31     
 G  c32     
 G  c33     
 G  c34     
 G  c35     
 G  c36     
 G  c37     
 G  c38     
 G  c39     
 G  c40     
 G  c41     
 G  c42     
 G  c43     
 G  c44     
 G  c45     
 G  c46     
 G  c47     
 G  c48     
 G  c49     
 G  c50     
 G  c51     
 G  c52     
 G  c53     
 G  c54     
 G  c55     
 G  c56     
 G  c57     
 G  c58     
 G  c59     
 G  c60     
 G  c61     
 G  c62     
 G  c63     
 G  c64     
 G  c65     
 G  c66     
 G  c67     
 G  c68     
 G  c69     
 G  c70     
COLUMNS
    MARK0000  'MARKER'                 'INTORG'
    x1        obj1                            1
    x1        c18                           836
    x1        c22                           479
    x1        c27                           325
    x1        c39                           754
    x2        obj1                            1
    x2        c1                            824
    x2        c5                            347
    x2        c9                            231
    x2        c11                           525
    x2        c16                           531
    x2        c17                           451
    x2        c30                           684
    x2        c35                           450
    x2        c47                           398
    x3        obj1                            1
    x3        c6                            476
    x3        c9                            310
    x3        c20                           477
    x3        c33                           250
    x3        c46                           766
    x3        c50                           151
    x3        c60                           335
    x3        c63                           366
    x4        obj1                            1
    x4        c2                            839
    x4        c4                            235
    x4        c13                           857
    x4        c17                           605
    x4        c19                           682
    x4        c31                           902
    x4        c36                           449
    x4        c66                           256
    x5        obj1                            1
    x5        c21                           774
    x5        c28                           474
    x5        c29                           987
    x5        c33                           440
    x5        c43                           192
    x5        c44                           336
    x5        c45                           799
    x5        c53                           948
    x5        c56                           677
    x5        c57                           709
    x6        obj1                            1
    x6        c1                            244
    x6        c2                            644
    x6        c19                           907
    x6        c47                           529
    x6        c59                           960
    x7        obj1                            1
    x7        c4                            755
    x7        c14                           675
    x7        c26                           454
    x7        c56                           773
    x7        c59                           496
    x8        obj1                            1
    x8        c9                            582
    x8        c15                           239
    x8        c37                           580
    x8        c45                           380
    x8        c52                           783
    x8        c64                           938
    x9        obj1                            1
    x9        c20                           478
    x9        c23                           420
    x9        c25                           305
    x9        c39                           322
    x9        c44                           662
    x9        c55                           422
    x10       obj1                            1
    x10       c3                            633
    x10       c8                            634
    x10       c17                           600
    x10       c19                           452
    x10       c21                           406
    x10       c24                           623
    x10       c26                           945
    x10       c29                           938
    x10       c43                           830
    x10       c52                           678
    x10       c54                           929
    x10       c64                           689
    x10       c70                           644
    x11       obj1                            1
    x11       c1                            386
    x11       c6                            692
    x11       c12                           340
    x11       c15                           955
    x11       c24                           562
    x11       c40                           362
    x11       c42                           262
    x11       c50                           414
    x12       obj1                            1
    x12       c16                           543
    x12       c24                           232
    x12       c27                           777
    x12       c37                           717
    x12       c39                           388
    x12       c46                           561
    x13       obj1                            1
    x13       c6                            948
    x13       c8                            620
    x13       c15                           886
    x13       c19                           482
    x13       c25                           286
    x13       c40                           467
    x13       c52                           904
    x13       c55                           885
    x13       c56                           351
    x14       obj1                            1
    x14       c5                            231
    x14       c8                            758
    x14       c9                            113
    x14       c19                           471
    x14       c20                           686
    x14       c39                           135
    x14       c51                           727
    x14       c65                           258
    x14       c68                           990
    x15       obj1                            1
    x15       c3                            129
    x15       c18                           118
    x15       c21                           625
    x15       c22                           624
    x15       c24                           649
    x15       c25                           207
    x15       c30                           956
    x15       c48                           993
    x15       c53                           801
    x15       c61                           179
    x16       obj1                            1
    x16       c29                           939
    x16       c55                           152
    x16       c59                           578
    x16       c60                           366
    x16       c66                           652
    x16       c69                           598
    x17       obj1                            1
    x17       c17                           656
    x17       c18                           569
    x17       c19                           684
    x17       c23                           327
    x17       c35                           859
    x17       c44                           734
    x17       c57                           278
    x17       c59                           134
    x18       obj1                            1
    x18       c12                           304
    x18       c32                           591
    x18       c57                           173
    x19       obj1                            1
    x19       c13                           947
    x19       c19                           732
    x19       c25                           272
    x19       c30                           732
    x19       c47                           949
    x19       c54                           907
    x20       obj1                            1
    x20       c40                           871
    x20       c70                           370
    x21       obj1                            1
    x21       c7                            729
    x21       c12                           353
    x21       c18                           779
    x21       c23                           117
    x21       c27                           138
    x21       c28                           418
    x21       c34                           751
    x21       c52                           694
    x21       c62                           660
    x21       c66                           896
    x22       obj1                            1
    x22       c12                           890
    x22       c14                           923
    x22       c24                           714
    x22       c68                           954
    x23       obj1                            1
    x23       c3                            720
    x23       c16                           227
    x23       c30                           992
    x23       c31                           115
    x23       c39                           729
    x23       c61                           607
    x23       c62                           651
    x24       obj1                            1
    x24       c4                            563
    x24       c14                           736
    x24       c26                           734
    x24       c37                           347
    x24       c43                           116
    x24       c46                           696
    x24       c48                           888
    x24       c49                           542
    x24       c67                           304
    x24       c68                           810
    x25       obj1                            1
    x25       c41                           355
    x25       c49                           277
    x25       c69                           216
    x26       obj1                            1
    x26       c42                           406
    x26       c44                           924
    x26       c46                           929
    x26       c55                           526
    x26       c69                           946
    x27       obj1                            1
    x27       c2                            734
    x27       c11                           216
    x27       c42                           433
    x27       c44                           265
    x28       obj1                            1
    x28       c5                            727
    x28       c32                           683
    x28       c43                           385
    x28       c56                           285
    x28       c60                           743
    x28       c64                           210
    x28       c69                           890
    x29       obj1                            1
    x29       c10                           330
    x29       c45                           877
    x29       c47                           723
    x29       c65                           174
    x29       c69                           917
    x30       obj1                            1
    x30       c4                            326
    x31       obj1                            1
    x31       c2                            343
    x31       c11                           963
    x31       c38                           922
    x31       c50                           914
    x31       c58                           307
    x32       obj1                            1
    x32       c1                            770
    x32       c15                           717
    x32       c16                           588
    x32       c17                           380
    x32       c25                           500
    x32       c32                           288
    x32       c45                           704
    x32       c52                           709
    x32       c55                           601
    x33       obj1                            1
    x33       c5                            658
    x33       c14                           396
    x33       c22                           506
    x33       c30                           391
    x33       c41                           601
    x33       c44                           242
    x33       c46                           592
    x34       obj1                            1
    x34       c23                           270
    x34       c38                           816
    x34       c50                           907
    x34       c52                           405
    x35       obj1                            1
    x35       c21                           184
    x35       c24                           363
    x35       c31                           914
    x35       c32                           929
    x35       c37                           254
    x35       c39                           815
    x35       c51                           671
    x35       c62                           135
    x35       c70                           176
    x36       obj1                            1
    x36       c34                           281
    x36       c57                           180
    x37       obj1                            1
    x37       c6                            224
    x37       c13                           827
    x37       c21                           770
    x37       c23                           855
    x37       c56                           336
    x37       c68                           659
    x37       c69                           681
    x38       obj1                            1
    x38       c1                            735
    x38       c5                            715
    x38       c8                            652
    x38       c20                           289
    x38       c22                           133
    x38       c29                           218
    x38       c36                           124
    x38       c48                           934
    x39       obj1                            1
    x39       c9                            483
    x39       c23                           831
    x39       c31                           478
    x39       c36                           888
    x39       c56                           420
    x39       c62                           821
    x40       obj1                            1
    x40       c1                            887
    x40       c2                            573
    x40       c10                           360
    x40       c14                           265
    x40       c40                           902
    x40       c59                           315
    x40       c60                           560
    x40       c66                           426
    x41       obj1                            1
    x41       c10                           273
    x41       c14                           798
    x41       c23                           855
    x41       c31                           744
    x41       c44                           752
    x41       c45                           744
    x41       c46                           436
    x41       c54                           899
    x41       c64                           443
    x42       obj1                            1
    x42       c2                            848
    x42       c14                           418
    x42       c15                           248
    x42       c30                           920
    x42       c37                           274
    x42       c48                           979
    x42       c57                           381
    x42       c67                           540
    x43       obj1                            1
    x43       c8                            126
    x43       c16                           149
    x43       c24                           199
    x43       c29                           871
    x43       c62                           217
    x44       obj1                            1
    x44       c10                           747
    x44       c16                           412
    x44       c24                           782
    x44       c27                           218
    x44       c31                           966
    x44       c32                           414
    x44       c40                           976
    x44       c42                           536
    x44       c53                           956
    x44       c63                           430
    x44       c66                           191
    x45       obj1                            1
    x45       c30                           389
    x45       c69                           862
    x46       obj1                            1
    x46       c21                           201
    x46       c28                           566
    x46       c52                           862
    x46       c57                           344
    x46       c58                           141
    x47       obj1                            1
    x47       c4                            993
    x47       c41                           971
    x47       c46                           522
    x47       c51                           935
    x47       c59                           880
    x47       c67                           853
    x48       obj1                            1
    x48       c4                            431
    x48       c11                           444
    x48       c30                           380
    x48       c55                           251
    x49       obj1                            1
    x49       c4                            250
    x49       c7                            642
    x49       c12                           224
    x49       c18                           733
    x49       c36                           763
    x49       c38                           355
    x49       c61                           877
    x49       c64                           904
    x50       obj1                            1
    x50       c9                            780
    x50       c13                           597
    x50       c21                           901
    x50       c26                           443
    x50       c32                           206
    x50       c50                           238
    x50       c53                           960
    x51       obj1                            1
    x51       c7                            355
    x51       c11                           570
    x51       c15                           688
    x51       c25                           287
    x51       c56                           455
    x51       c68                           247
    x51       c70                           157
    x52       obj1                            1
    x52       c7                            287
    x52       c21                           807
    x52       c34                           411
    x52       c50                           198
    x53       obj1                            1
    x53       c4                            269
    x53       c16                           144
    x53       c18                           400
    x53       c25                           453
    x53       c27                           274
    x53       c51                           101
    x53       c55                           709
    x53       c70                           508
    x54       obj1                            1
    x54       c20                           663
    x54       c29                           869
    x54       c35                           596
    x54       c46                           633
    x55       obj1                            1
    x55       c11                           106
    x55       c17                           243
    x55       c29                           961
    x55       c33                           286
    x55       c38                           318
    x55       c41                           797
    x55       c62                           206
    x56       obj1                            1
    x56       c4                            320
    x56       c7                            284
    x56       c13                           700
    x56       c19                           215
    x56       c29                           458
    x56       c32                           695
    x56       c42                           582
    x56       c46                           131
    x56       c55                           258
    x56       c57                           885
    x56       c61                           462
    x57       obj1                            1
    x57       c14                           668
    x57       c15                           516
    x57       c35                           582
    x57       c58                           182
    x57       c65                           538
    x57       c67                           632
    x58       obj1                            1
    x58       c23                           848
    x58       c43                           123
    x58       c45                           406
    x58       c49                           215
    x58       c61                           480
    x58       c63                           759
    x59       obj1                            1
    x59       c8                            797
    x59       c9                            834
    x59       c18                           233
    x59       c37                           822
    x59       c46                           774
    x59       c51                           586
    x59       c52                           564
    x59       c63                           953
    x59       c69                           710
    x60       obj1                            1
    x60       c11                           498
    x60       c17                           772
    x60       c19                           629
    x60       c21                           852
    x60       c28                           924
    x60       c33                           862
    x60       c37                           983
    x60       c38                           318
    x60       c45                           912
    x60       c47                           145
    x60       c51                           514
    x61       obj1                            1
    x61       c8                            438
    x61       c35                           651
    x61       c37                           463
    x61       c42                           628
    x61       c43                           756
    x61       c44                           994
    x61       c50                           165
    x61       c55                           143
    x61       c62                           234
    x62       obj1                            1
    x62       c14                           764
    x62       c18                           937
    x62       c20                           640
    x62       c28                           477
    x62       c29                           372
    x62       c31                           121
    x62       c32                           402
    x62       c41                           842
    x62       c52                           839
    x62       c56                           217
    x62       c57                           769
    x62       c68                           435
    x63       obj1                            1
    x63       c5                            650
    x63       c38                           649
    x64       obj1                            1
    x64       c1                            371
    x64       c10                           500
    x64       c11                           599
    x64       c24                           547
    x64       c36                           519
    x64       c54                           120
    x64       c62                           677
    x65       obj1                            1
    x65       c1                            511
    x65       c25                           394
    x65       c28                           413
    x65       c32                           669
    x65       c52                           869
    x65       c59                           843
    x65       c67                           533
    x66       obj1                            1
    x66       c3                            799
    x66       c27                           113
    x66       c28                           643
    x66       c41                           290
    x66       c50                           886
    x66       c51                           941
    x66       c59                           627
    x66       c69                           825
    x67       obj1                            1
    x67       c1                            130
    x67       c11                           664
    x67       c17                           729
    x67       c41                           328
    x67       c42                           875
    x67       c44                           519
    x67       c49                           933
    x67       c62                           933
    x67       c70                           596
    x68       obj1                            1
    x68       c5                            863
    x68       c15                           602
    x68       c31                           874
    x68       c53                           882
    x68       c64                           519
    x69       obj1                            1
    x69       c4                            967
    x69       c9                            483
    x69       c15                           255
    x69       c28                           302
    x69       c30                           850
    x69       c38                           616
    x69       c40                           878
    x69       c47                           229
    x69       c57                           606
    x69       c58                           523
    x69       c65                           937
    x69       c68                           405
    x69       c69                           457
    x70       obj1                            1
    x70       c9                            825
    x70       c19                           130
    x70       c34                           915
    x70       c38                           562
    x70       c42                           220
    x70       c51                           498
    MARK0001  'MARKER'                 'INTEND'
RHS
    rhs       c1                           2429
    rhs       c2                           1991
    rhs       c3                           1141
    rhs       c4                           2555
    rhs       c5                           2096
    rhs       c6                           1170
    rhs       c7                           1149
    rhs       c8                           2013
    rhs       c9                           2321
    rhs       c10                          1105
    rhs       c11                          2293
    rhs       c12                          1056
    rhs       c13                          1964
    rhs       c14                          2822
    rhs       c15                          2553
    rhs       c16                          1297
    rhs       c17                          2218
    rhs       c18                          2303
    rhs       c19                          2692
    rhs       c20                          1617
    rhs       c21                          2760
    rhs       c22                           871
    rhs       c23                          2262
    rhs       c24                          2336
    rhs       c25                          1352
    rhs       c26                          1288
    rhs       c27                           923
    rhs       c28                          2109
    rhs       c29                          3307
    rhs       c30                          3147
    rhs       c31                          2557
    rhs       c32                          2439
    rhs       c33                           919
    rhs       c34                          1179
    rhs       c35                          1569
    rhs       c36                          1372
    rhs       c37                          2220
    rhs       c38                          2278
    rhs       c39                          1572
    rhs       c40                          2228
    rhs       c41                          2092
    rhs       c42                          1971
    rhs       c43                          1201
    rhs       c44                          2714
    rhs       c45                          2411
    rhs       c46                          3020
    rhs       c47                          1487
    rhs       c48                          1897
    rhs       c49                           984
    rhs       c50                          1937
    rhs       c51                          2487
    rhs       c52                          3654
    rhs       c53                          2274
    rhs       c54                          1428
    rhs       c55                          1974
    rhs       c56                          1757
    rhs       c57                          2163
    rhs       c58                           577
    rhs       c59                          2417
    rhs       c60                          1002
    rhs       c61                          1303
    rhs       c62                          2267
    rhs       c63                          1254
    rhs       c64                          1852
    rhs       c65                           954
    rhs       c66                          1211
    rhs       c67                          1431
    rhs       c68                          2250
    rhs       c69                          3551
    rhs       c70                          1226
BOUNDS
 LI bnd       x1        0
 LI bnd       x2        0
 LI bnd       x3        0
 LI bnd       x4        0
 LI bnd       x5        0
 LI bnd       x6        0
 LI bnd       x7        0
 LI bnd       x8        0
 LI bnd       x9        0
 LI bnd       x10       0
 LI bnd       x11       0
 LI bnd       x12       0
 LI bnd       x13       0
 LI bnd       x14       0
 LI bnd       x15       0
 LI bnd       x16       0
 LI bnd       x17       0
 LI bnd       x18       0
 LI bnd       x19       0
 LI bnd       x20       0
 LI bnd       x21       0
 LI bnd       x22       0
 LI bnd       x23       0
 LI bnd       x24       0
 LI bnd       x25       0
 LI bnd       x26       0
 LI bnd       x27       0
 LI bnd       x28       0
 LI bnd       x29       0
 LI bnd       x30       0
 LI bnd       x31       0
 LI bnd       x32       0
 LI bnd       x33       0
 LI bnd       x34       0
 LI bnd       x35       0
 LI bnd       x36       0
 LI bnd       x37       0
 LI bnd       x38       0
 LI bnd       x39       0
 LI bnd       x40       0
 LI bnd       x41       0
 LI bnd       x42       0
 LI bnd       x43       0
 LI bnd       x44       0
 LI bnd       x45       0
 LI bnd       x46       0
 LI bnd       x47       0
 LI bnd       x48       0
 LI bnd       x49       0
 LI bnd       x50       0
 LI bnd       x51       0
 LI bnd       x52       0
 LI bnd       x53       0
 LI bnd       x54       0
 LI bnd       x55       0
 LI bnd       x56       0
 LI bnd       x57       0
 LI bnd       x58       0
 LI bnd       x59       0
 LI bnd       x60       0
 LI bnd       x61       0
 LI bnd       x62       0
 LI bnd       x63       0
 LI bnd       x64       0
 LI bnd       x65       0
 LI bnd       x66       0
 LI bnd       x67       0
 LI bnd       x68       0
 LI bnd       x69       0
 LI bnd       x70       0
ENDATA
